50
99.0
0 49 9.55 2.18
1 48 9.42 2.19
2 47 10.17 2.02
3 46 10.72 1.93
4 45 8.76 1.9
5 44 10.36 2.06
6 43 10.16 2.02
7 42 9.64 1.97
8 41 10.56 2.32
9 40 9.28 2.28
10 39 8.54 2.09
11 38 8.68 2.09
12 37 10.41 2.26
13 36 10.08 2.08
14 35 10.86 2.38
15 34 8.12 2.23
16 33 9.76 2.2
17 32 8.34 1.99
18 31 9.1 1.82
19 30 9.67 2.33
20 29 10.38 2.38
21 28 7.93 2.03
22 27 9.48 2.25
23 26 10.35 1.73
24 25 8.0 2.2
25 24 10.92 1.9
26 23 11.13 1.61
27 22 10.64 2.48
28 21 10.81 2.05
29 20 11.9 2.04
30 19 11.68 1.99
31 18 12.56 1.95
32 17 7.47 2.18
33 16 10.06 1.56
34 15 8.8 2.35
35 14 8.36 1.59
36 13 10.46 2.34
37 12 11.5 1.99
38 11 8.09 2.5
39 10 9.0 1.52
40 9 10.11 2.07
41 8 11.62 2.14
42 7 10.29 1.5
43 6 8.83 2.44
44 5 6.2 2.56
45 4 6.25 2.48
46 3 11.67 2.4
47 2 10.0 0.93
48 1 20.0 1.61
